180 1611 
1 148 -1
1 160 1
1 144 -1
1 14 1
1 130 1
1 117 1
1 56 -1
1 137 -1
1 12 -1
1 107 1
1 20 1
1 100 -1
1 114 1
1 11 -1
1 124 -1
1 173 -1
1 179 1
1 75 1
1 180 -1
2 10 -1
2 38 1
2 118 -1
2 46 1
2 83 -1
2 92 1
2 94 1
2 114 -1
2 99 -1
2 169 1
2 137 -1
2 35 -1
2 6 -1
2 82 1
2 103 -1
2 174 1
2 145 1
2 88 -1
2 39 -1
2 11 1
2 100 1
2 34 1
2 140 -1
2 91 -1
3 9 1
3 97 1
3 52 1
3 131 1
3 61 1
3 162 -1
3 36 1
3 152 -1
3 167 1
3 59 1
3 104 -1
3 105 1
3 72 -1
3 160 1
3 114 -1
3 93 1
3 170 1
3 108 -1
3 179 1
3 83 -1
3 76 -1
3 148 1
4 45 1
4 82 -1
4 72 -1
4 120 -1
4 164 1
4 30 1
4 106 1
4 47 -1
4 18 -1
4 53 -1
4 42 -1
4 157 1
4 64 -1
4 110 -1
5 101 -1
5 83 -1
5 173 -1
5 153 -1
5 59 -1
5 125 1
5 159 1
5 158 -1
5 40 -1
5 58 -1
5 92 -1
5 6 -1
5 161 1
5 121 -1
5 116 1
5 69 1
5 32 -1
5 43 1
5 14 -1
6 24 -1
6 137 1
6 158 1
6 178 1
6 25 -1
6 95 1
6 147 1
6 14 -1
6 138 -1
6 50 1
6 49 1
6 17 -1
6 104 1
6 101 -1
6 177 -1
6 42 1
7 175 1
7 172 -1
7 178 1
7 9 -1
7 139 1
7 17 1
7 61 -1
7 65 1
7 15 1
7 166 1
7 138 -1
7 123 -1
7 103 -1
7 42 -1
7 66 -1
7 26 -1
7 121 1
7 35 1
7 12 -1
8 23 1
8 98 1
8 9 1
8 60 -1
8 72 -1
8 47 -1
8 121 -1
8 101 -1
8 12 -1
8 99 1
8 127 -1
8 86 1
8 22 1
8 125 1
8 46 1
9 170 1
9 148 1
9 62 1
9 143 -1
9 69 -1
9 139 -1
9 132 1
9 152 -1
9 44 -1
9 25 1
9 160 1
9 22 1
9 164 -1
9 17 -1
9 176 -1
9 33 1
9 71 -1
9 37 1
10 71 -1
10 104 -1
10 63 -1
10 64 -1
10 157 1
10 34 1
10 22 1
10 43 -1
10 53 1
10 168 -1
10 120 1
10 52 -1
10 70 1
10 101 1
10 172 -1
10 166 -1
10 131 -1
10 57 1
10 128 1
10 177 1
10 178 1
10 30 -1
10 106 -1
10 21 -1
10 49 -1
10 123 -1
11 92 1
11 173 1
11 85 1
11 140 -1
11 37 1
11 145 1
11 81 -1
11 65 -1
11 45 -1
11 146 1
11 130 -1
11 42 1
11 103 -1
11 136 -1
11 24 -1
11 14 1
11 104 1
12 77 -1
12 109 -1
12 31 -1
12 119 1
12 141 1
12 90 1
12 142 -1
12 139 1
12 175 1
12 46 1
12 105 1
12 57 -1
12 158 -1
12 32 1
12 54 1
12 174 1
12 28 1
12 131 1
12 48 1
12 24 1
12 36 1
12 89 -1
13 112 1
13 74 -1
13 149 -1
13 100 1
13 131 -1
13 98 1
13 18 -1
13 41 1
13 147 -1
13 35 -1
13 172 -1
13 25 -1
13 171 1
13 59 1
13 32 -1
14 119 1
14 130 1
14 77 1
14 176 -1
14 128 -1
14 63 -1
14 123 1
14 86 -1
14 137 -1
14 57 -1
14 180 -1
14 21 1
14 139 -1
14 127 -1
14 153 1
14 126 -1
14 85 -1
14 87 1
14 140 1
14 146 1
14 166 -1
14 48 1
14 50 1
14 111 -1
15 70 1
15 33 -1
15 127 -1
15 62 1
15 20 -1
15 136 -1
15 117 1
15 142 1
15 174 -1
15 179 -1
15 38 -1
15 50 -1
15 110 1
15 167 -1
15 16 -1
15 170 1
15 139 -1
15 116 1
15 74 -1
16 54 -1
16 128 1
16 46 1
16 135 -1
16 96 -1
16 106 1
16 78 1
16 101 -1
16 72 -1
16 130 1
16 73 -1
16 65 1
16 89 -1
16 154 1
16 31 1
16 47 1
16 27 1
16 132 -1
16 122 1
16 172 1
17 114 1
17 41 1
17 59 1
17 125 -1
17 155 1
17 141 1
17 57 -1
17 140 -1
17 107 1
17 138 1
17 159 1
17 95 -1
17 66 -1
17 86 -1
17 48 1
17 137 1
17 47 1
18 77 -1
18 145 -1
18 154 1
18 57 -1
18 28 1
18 58 1
18 62 1
18 80 -1
18 166 1
18 27 -1
18 59 1
18 56 1
18 167 -1
18 42 -1
19 38 -1
19 91 1
19 27 -1
19 111 -1
19 97 -1
19 166 -1
19 138 1
19 119 1
19 72 1
19 124 1
19 131 -1
19 117 -1
19 121 1
20 103 -1
20 72 1
20 127 -1
20 56 -1
20 155 -1
20 101 1
20 70 -1
20 153 1
20 38 -1
20 91 -1
20 169 -1
20 45 1
20 147 1
20 179 1
20 88 -1
20 121 -1
21 72 1
21 51 -1
21 34 1
21 37 1
21 57 -1
21 141 1
21 103 -1
21 176 1
21 69 1
21 155 1
21 52 1
21 120 -1
21 39 1
21 100 -1
21 78 1
21 61 -1
22 124 -1
22 160 1
22 64 -1
22 112 1
22 146 -1
22 32 -1
22 77 -1
22 102 -1
22 74 1
22 95 1
22 114 1
22 152 1
22 171 1
22 115 1
22 156 1
23 48 1
23 37 1
23 97 -1
23 110 1
23 67 1
23 125 1
23 91 -1
23 70 -1
23 109 -1
23 129 1
23 127 -1
23 24 1
23 59 1
23 106 1
23 104 -1
23 163 1
23 38 1
23 147 1
23 158 1
23 61 1
23 41 -1
23 174 1
23 34 1
23 43 1
24 142 1
24 84 -1
24 179 1
24 52 -1
24 33 -1
24 32 1
24 133 -1
24 92 1
24 31 -1
24 119 -1
24 49 -1
24 69 1
24 68 1
24 147 -1
24 178 -1
25 49 1
25 29 1
25 119 -1
25 78 1
25 162 -1
25 33 1
25 123 -1
25 118 1
25 148 1
25 67 1
25 115 -1
25 77 1
25 129 1
25 106 -1
25 91 -1
25 180 -1
26 164 1
26 97 -1
26 102 -1
26 49 -1
26 134 -1
26 156 1
26 74 1
26 50 -1
26 142 1
26 157 1
26 63 1
27 175 1
27 171 1
27 170 1
27 101 -1
27 112 1
27 147 1
28 119 -1
28 35 1
28 175 -1
28 67 -1
28 141 1
28 33 1
28 111 1
28 117 -1
28 41 1
28 53 -1
29 172 1
29 177 1
29 165 -1
29 159 1
29 148 -1
29 35 1
29 140 -1
29 107 1
29 73 -1
29 120 -1
29 57 -1
29 168 -1
29 110 1
30 80 -1
30 98 -1
30 162 -1
30 135 -1
30 92 1
30 144 -1
30 39 1
30 111 1
30 99 1
30 65 -1
30 58 1
30 143 -1
30 158 1
31 143 -1
31 176 -1
31 87 -1
31 63 1
31 166 1
31 34 -1
31 151 1
31 114 1
31 167 -1
31 104 1
31 97 -1
31 69 1
31 73 -1
32 134 1
32 44 -1
32 163 -1
32 109 -1
32 131 -1
32 172 -1
32 86 -1
32 79 -1
32 176 -1
32 98 1
32 90 1
32 103 -1
32 136 -1
32 159 1
32 59 1
32 141 1
32 143 -1
33 166 1
33 135 -1
33 140 1
33 116 1
33 62 1
33 41 -1
33 44 1
33 122 -1
33 138 1
33 68 1
33 79 -1
33 121 1
33 130 -1
33 170 1
33 177 -1
34 118 -1
34 142 -1
34 148 1
34 92 -1
34 128 1
34 72 1
34 79 -1
34 80 1
34 62 -1
34 114 -1
34 44 1
34 133 1
34 111 -1
34 36 -1
34 84 1
35 138 -1
35 175 1
35 84 1
35 160 1
35 37 -1
35 93 -1
35 57 -1
35 60 1
35 59 -1
35 179 -1
35 95 1
35 87 1
36 169 1
36 119 -1
36 37 -1
36 108 -1
36 73 -1
36 102 -1
36 180 1
36 167 1
36 143 1
36 92 -1
36 177 1
36 91 -1
37 58 -1
37 117 -1
37 104 -1
37 65 1
37 60 1
37 172 -1
37 135 1
37 147 1
37 150 1
37 149 -1
37 75 1
37 52 1
37 72 1
38 116 -1
38 44 1
38 180 -1
38 132 1
38 155 1
38 39 1
38 161 -1
38 143 1
38 179 -1
38 40 -1
38 166 1
38 58 -1
38 153 -1
38 48 -1
38 122 1
39 116 1
39 110 1
39 136 -1
39 53 -1
39 133 1
39 92 -1
39 96 1
39 73 1
39 106 -1
39 55 -1
39 58 -1
39 180 -1
39 119 1
39 149 1
40 152 -1
40 50 -1
40 101 -1
40 155 1
40 122 -1
40 53 -1
40 140 -1
40 167 -1
40 98 1
40 123 -1
41 174 1
41 94 1
41 78 1
41 124 -1
41 100 -1
41 68 1
41 112 -1
41 75 1
41 179 -1
41 163 -1
42 178 1
42 71 -1
42 102 1
42 156 -1
42 44 1
42 130 -1
42 55 -1
42 120 -1
42 92 1
42 67 1
42 173 1
42 73 1
42 68 1
43 140 1
43 130 -1
43 124 -1
43 78 -1
43 93 1
43 172 1
43 123 1
43 76 -1
43 71 -1
43 85 -1
43 143 -1
44 68 -1
44 110 1
44 137 1
44 80 -1
44 57 1
44 151 1
44 63 -1
44 119 1
44 91 1
44 156 -1
44 113 -1
44 153 -1
44 158 1
44 138 -1
44 179 -1
44 94 -1
44 87 1
44 164 1
44 155 1
45 158 1
45 131 1
45 161 1
45 114 1
45 180 -1
45 144 -1
45 87 -1
45 127 1
45 92 1
45 116 -1
45 50 1
46 147 -1
46 157 1
46 90 1
46 138 1
46 132 1
46 122 -1
46 166 -1
46 70 -1
46 74 -1
47 107 -1
47 125 1
47 144 -1
47 145 -1
47 165 -1
47 123 1
47 120 -1
47 119 1
47 78 -1
47 52 1
47 129 1
47 56 1
47 171 -1
48 82 1
48 124 1
48 81 -1
48 117 1
48 56 -1
48 113 1
48 62 1
48 140 1
48 96 -1
48 180 -1
48 79 -1
49 53 1
49 176 -1
49 57 1
49 152 1
49 168 1
49 103 -1
49 166 -1
49 124 1
49 143 -1
49 68 -1
49 91 -1
49 77 -1
49 50 -1
49 117 1
49 180 1
50 160 -1
50 130 1
50 79 1
50 96 -1
50 58 1
50 92 -1
50 68 1
50 132 -1
50 93 1
50 75 -1
50 159 -1
50 70 1
50 57 1
50 89 -1
50 176 -1
50 84 -1
50 140 1
51 113 -1
51 90 1
51 97 1
51 168 1
51 136 1
51 166 -1
51 99 -1
51 170 1
51 119 1
51 177 1
51 76 1
51 123 1
52 97 -1
52 107 1
52 166 -1
52 127 1
52 123 -1
52 137 -1
52 175 -1
52 141 -1
52 128 -1
52 55 -1
52 93 -1
52 117 1
52 53 1
52 99 1
52 120 1
52 152 1
52 112 -1
52 81 -1
52 66 1
52 109 1
52 79 -1
53 175 -1
53 87 -1
53 93 1
53 126 1
53 139 -1
53 66 -1
53 171 -1
53 155 -1
53 157 1
53 145 1
53 170 1
54 103 -1
54 79 -1
54 118 -1
54 145 -1
54 153 1
54 158 -1
54 172 -1
54 99 1
54 111 -1
55 141 1
55 147 -1
55 175 -1
55 57 -1
55 67 -1
55 62 -1
55 177 1
55 85 -1
55 90 -1
55 153 -1
55 74 -1
56 171 -1
56 142 -1
56 62 1
56 77 1
56 179 1
56 137 1
56 149 -1
56 106 1
56 162 -1
56 126 -1
57 100 1
57 82 1
57 78 -1
57 76 1
57 139 1
57 146 -1
57 167 1
58 122 1
58 140 1
58 178 -1
58 84 -1
58 174 -1
58 81 1
58 149 1
58 114 1
58 169 1
58 134 -1
58 110 1
58 162 -1
59 168 1
59 81 1
59 141 1
59 64 -1
59 140 -1
59 70 1
59 75 1
59 155 -1
59 79 1
59 72 -1
59 157 1
59 180 -1
59 82 -1
60 124 -1
60 65 1
60 84 1
60 111 -1
60 64 1
60 163 1
60 95 -1
60 66 -1
60 62 1
61 95 1
61 84 -1
61 126 1
61 152 1
61 127 1
61 80 1
61 71 -1
61 129 -1
62 160 1
62 95 -1
62 128 1
62 109 -1
62 107 -1
62 67 1
62 155 1
62 74 1
62 111 1
62 119 -1
62 122 -1
62 100 1
62 174 1
62 75 -1
62 71 -1
62 157 -1
63 157 1
63 150 -1
63 170 1
63 67 1
63 120 1
63 141 1
63 127 1
63 144 1
63 149 -1
63 99 1
63 145 1
64 144 1
64 143 -1
64 169 1
64 100 -1
64 150 -1
64 76 1
64 66 1
64 147 1
64 141 1
64 83 -1
64 173 1
64 122 -1
64 105 1
65 119 1
65 151 1
65 74 1
65 163 1
65 90 -1
65 83 -1
65 84 -1
65 169 1
65 86 -1
65 122 1
65 129 1
65 75 -1
66 71 -1
66 147 -1
66 132 -1
66 82 1
66 120 -1
66 151 1
66 102 -1
66 68 1
66 140 -1
66 134 1
66 99 -1
66 76 -1
67 74 -1
67 86 1
67 88 -1
67 135 -1
67 158 -1
67 115 -1
67 144 1
67 157 -1
67 178 -1
67 75 -1
67 160 -1
67 110 1
67 76 1
67 153 -1
68 81 -1
68 79 -1
68 179 -1
68 118 -1
68 167 -1
68 131 1
68 171 1
68 85 -1
68 148 1
68 164 1
68 115 -1
68 88 1
68 161 1
68 134 1
69 154 -1
69 170 -1
69 131 -1
69 96 -1
69 177 1
69 95 1
69 102 -1
69 134 1
69 140 -1
69 171 -1
69 87 -1
69 83 1
69 109 -1
69 136 -1
70 180 1
70 108 1
70 145 -1
70 133 1
70 147 1
70 91 1
70 121 -1
70 134 -1
70 131 -1
70 165 1
70 113 1
70 76 -1
71 122 1
71 170 1
71 131 -1
71 176 -1
71 173 1
71 97 1
71 78 -1
72 139 -1
72 119 1
72 150 1
72 163 1
72 98 1
72 169 1
72 90 1
72 122 -1
72 130 1
73 89 -1
73 86 1
73 94 1
73 127 -1
73 75 1
73 126 1
73 141 -1
73 170 -1
73 116 1
73 112 1
73 128 1
73 158 -1
73 119 1
74 89 1
74 110 1
74 87 1
74 95 -1
74 79 -1
74 137 1
74 136 1
74 169 -1
74 111 -1
74 178 -1
74 104 1
74 158 1
74 118 -1
74 76 1
74 77 1
75 162 -1
75 84 -1
75 163 -1
75 164 -1
75 108 -1
75 122 1
75 127 1
75 103 -1
75 150 -1
76 85 -1
76 82 1
76 146 1
76 100 -1
76 170 1
76 177 -1
76 113 1
76 83 1
76 103 -1
76 84 -1
77 98 1
77 125 -1
77 113 -1
77 107 1
77 115 -1
77 114 1
77 137 -1
77 172 1
77 168 1
77 84 1
77 155 1
77 82 1
77 179 -1
78 109 1
78 165 1
78 146 1
78 150 -1
78 134 1
78 98 1
78 120 -1
78 121 -1
78 148 -1
78 119 1
78 132 -1
78 178 -1
79 131 1
79 152 1
79 109 -1
79 128 1
79 172 1
79 129 1
80 115 -1
80 125 1
80 82 1
80 142 1
80 157 1
80 81 1
80 97 -1
80 170 -1
80 149 -1
80 91 1
80 89 1
80 129 1
80 114 -1
81 158 1
81 118 1
81 135 -1
81 149 1
81 128 -1
81 93 1
81 131 -1
81 110 1
81 157 1
81 99 1
81 161 1
81 126 1
82 108 -1
82 166 1
82 107 -1
82 178 -1
82 120 1
82 116 -1
82 175 -1
82 151 -1
82 85 1
82 136 -1
82 170 -1
83 120 -1
83 148 1
83 170 1
83 131 1
83 160 -1
83 172 -1
83 112 -1
83 111 -1
83 154 -1
83 104 -1
83 167 -1
83 117 -1
83 178 1
83 99 1
84 96 1
84 158 -1
84 88 1
84 106 1
84 164 -1
84 137 1
84 168 -1
84 101 1
84 165 1
84 97 -1
84 109 1
84 134 1
85 106 -1
85 130 1
85 122 1
85 127 -1
85 161 -1
85 167 1
85 134 -1
86 124 -1
86 148 1
86 90 -1
86 122 1
86 104 -1
86 102 -1
86 92 -1
86 136 -1
86 107 -1
86 142 1
87 110 1
87 105 1
87 116 -1
87 121 -1
87 128 1
87 103 -1
87 175 1
87 109 -1
87 160 1
87 162 -1
88 90 1
88 176 1
88 135 1
88 164 1
88 154 1
88 118 1
88 93 1
89 124 1
89 123 1
89 149 -1
89 100 1
89 161 1
89 120 1
89 114 -1
89 132 1
89 150 -1
89 160 -1
89 173 1
90 158 -1
90 94 1
90 117 1
90 156 1
90 103 -1
90 138 -1
90 175 1
90 133 -1
90 129 -1
90 143 -1
90 157 1
90 137 -1
90 162 -1
90 142 -1
90 153 1
91 107 1
91 135 -1
91 167 1
91 150 1
91 112 -1
91 114 -1
91 161 1
91 169 1
91 125 1
91 131 1
91 93 -1
92 148 1
92 152 -1
92 150 -1
92 97 1
92 170 -1
92 179 -1
92 96 1
92 161 1
92 146 1
93 166 1
93 132 1
93 159 -1
93 128 1
93 156 -1
93 123 -1
93 100 1
93 103 -1
93 127 -1
94 154 1
94 144 1
94 104 1
94 135 1
94 172 1
94 146 -1
94 138 -1
94 141 -1
94 108 1
94 117 1
94 174 1
95 112 1
95 96 -1
95 135 -1
95 154 -1
95 170 -1
95 138 1
95 107 -1
95 175 -1
95 106 -1
96 126 -1
96 162 1
96 107 1
96 149 1
96 152 1
96 142 -1
96 176 1
96 180 -1
96 119 1
96 117 1
96 133 -1
97 104 1
97 172 1
97 166 1
97 100 -1
97 118 1
97 145 1
97 178 1
97 167 1
97 107 -1
97 180 1
97 114 1
97 149 -1
97 129 -1
97 124 -1
97 108 -1
97 102 1
97 132 1
97 163 1
97 162 1
98 122 -1
98 137 -1
98 150 -1
98 180 -1
98 171 -1
98 141 1
99 106 -1
99 147 -1
99 126 1
99 130 -1
99 150 -1
100 122 1
100 179 1
100 110 -1
100 164 1
101 107 -1
101 170 1
101 109 1
101 127 1
101 161 1
101 175 1
101 153 1
101 147 -1
101 174 1
102 156 -1
102 123 -1
102 118 1
102 148 -1
102 172 1
103 159 -1
103 144 1
103 143 1
103 132 -1
103 178 -1
103 176 -1
103 151 1
103 127 1
104 105 1
104 169 -1
104 170 1
104 144 -1
105 140 1
105 121 1
105 172 1
105 147 1
106 161 -1
106 108 -1
106 168 1
106 134 -1
106 160 -1
107 111 -1
107 167 1
107 161 -1
107 108 1
107 114 1
108 169 -1
108 129 -1
108 122 1
108 165 1
108 133 1
108 147 -1
108 145 -1
108 140 1
108 178 1
109 169 1
109 156 1
109 114 -1
109 166 -1
109 123 -1
109 152 1
109 134 -1
109 110 -1
110 126 -1
110 146 1
110 167 1
110 150 -1
111 168 -1
111 180 -1
111 170 1
111 142 1
111 116 1
111 120 -1
111 146 -1
111 160 -1
111 176 1
112 143 1
112 150 1
112 175 -1
112 145 -1
112 140 1
112 130 1
112 158 1
112 142 -1
113 127 -1
113 180 -1
113 123 1
113 126 1
113 115 -1
113 174 -1
113 130 1
113 173 1
114 123 -1
114 144 -1
114 166 1
114 161 1
114 129 1
114 133 -1
115 129 1
115 154 1
115 157 -1
115 141 -1
115 151 -1
115 169 -1
115 136 1
116 132 -1
116 161 -1
117 119 1
117 136 -1
117 135 1
118 140 1
118 162 1
118 160 1
118 125 -1
119 170 -1
119 121 -1
119 162 1
119 178 -1
119 153 -1
119 144 1
119 177 1
119 142 1
119 150 -1
119 168 -1
119 137 1
119 146 -1
120 121 1
120 172 -1
120 130 -1
120 164 1
120 153 -1
120 145 -1
120 124 -1
120 131 1
120 157 -1
120 178 -1
121 131 1
121 165 -1
121 160 -1
121 178 1
121 148 1
121 132 -1
122 166 -1
122 176 -1
123 163 -1
123 145 1
123 126 -1
124 169 -1
124 142 -1
124 151 1
124 149 -1
124 159 -1
124 173 -1
124 148 1
125 169 1
125 132 1
125 174 1
125 161 1
125 176 -1
126 171 1
126 170 -1
126 178 1
127 128 -1
127 166 1
127 162 1
127 142 1
127 163 -1
127 159 1
128 149 1
128 134 -1
128 133 -1
128 154 -1
128 176 1
129 164 1
129 130 -1
129 176 1
130 152 -1
130 180 -1
130 143 1
130 160 1
130 148 1
131 144 -1
131 154 1
131 155 1
131 176 -1
131 139 1
132 176 -1
132 164 1
132 143 1
133 149 -1
133 164 1
133 144 -1
133 153 1
133 157 -1
133 135 -1
133 147 1
133 162 1
133 172 1
134 136 1
134 177 -1
134 143 1
134 172 -1
134 140 1
135 150 -1
135 145 1
135 142 1
135 163 1
135 162 1
136 161 1
136 148 1
136 176 -1
136 147 1
136 160 -1
136 163 -1
137 165 1
137 163 1
137 150 1
138 174 -1
138 153 1
138 178 -1
138 155 1
138 170 1
139 155 -1
139 143 -1
140 142 -1
141 169 -1
141 166 -1
142 144 1
142 162 -1
143 171 -1
143 170 -1
143 152 1
143 162 -1
143 147 -1
144 178 -1
144 179 1
144 174 1
144 149 1
144 156 -1
144 154 1
145 146 1
146 174 1
146 173 1
146 154 1
147 155 1
147 176 1
148 168 1
149 175 1
149 153 -1
149 168 -1
149 164 -1
150 156 -1
150 155 1
151 161 -1
151 157 1
152 165 1
153 169 -1
153 178 1
153 160 1
153 172 -1
153 161 1
153 164 -1
154 158 1
154 173 1
154 164 -1
154 157 1
155 176 -1
156 158 -1
157 160 1
157 166 -1
157 169 1
158 166 -1
159 166 -1
159 178 -1
159 177 1
160 163 1
160 164 -1
160 170 1
161 170 -1
161 163 1
162 163 1
162 178 -1
162 179 1
162 164 -1
164 173 -1
165 180 1
167 178 -1
167 171 -1
168 175 1
170 175 -1
172 180 1
174 175 -1
175 176 1
